(set-logic QF_UF)
(declare-fun A0 () Bool)
(declare-fun A1 () Bool)
(declare-fun A2 () Bool)
(declare-fun A3 () Bool)
(declare-fun A4 () Bool)
(declare-fun A5 () Bool)
(declare-fun A6 () Bool)
(declare-fun A8 () Bool)
(declare-fun A9 () Bool)
(declare-fun A10 () Bool)
(declare-fun A11 () Bool)
(declare-fun A12 () Bool)
(declare-fun A13 () Bool)
(declare-fun A14 () Bool)
(declare-fun A15 () Bool)
(declare-fun A16 () Bool)
(declare-fun A17 () Bool)
(declare-fun A18 () Bool)
(declare-fun A19 () Bool)
(declare-fun A20 () Bool)
(declare-fun A21 () Bool)
(declare-fun A22 () Bool)
(declare-fun A23 () Bool)
(declare-fun A24 () Bool)
(assert (let ((.def_0 (not A1))) (let ((.def_1 (or .def_0 A9))) (let ((.def_2 (not .def_1))) (let ((.def_3 (not A18))) (let ((.def_4 (or .def_3 A20))) (let ((.def_5 (not .def_4))) (let ((.def_6 (and .def_5 .def_2))) (let ((.def_7 (not .def_6))) (let ((.def_8 (= A4 .def_0))) (let ((.def_9 (not A21))) (let ((.def_10 (or .def_9 A15))) (let ((.def_11 (not .def_10))) (let ((.def_12 (and .def_11 .def_8))) (let ((.def_13 (and .def_12 .def_7))) (let ((.def_14 (not .def_13))) (let ((.def_15 (not A6))) (let ((.def_16 (or A16 .def_15))) (let ((.def_17 (not .def_16))) (let ((.def_18 (not A13))) (let ((.def_19 (and .def_18 A17))) (let ((.def_20 (or .def_19 .def_17))) (let ((.def_21 (not A16))) (let ((.def_22 (and A11 .def_21))) (let ((.def_23 (not A3))) (let ((.def_24 (and .def_23 A3))) (let ((.def_25 (or .def_24 .def_22))) (let ((.def_26 (or .def_25 .def_20))) (let ((.def_27 (not .def_26))) (let ((.def_28 (or .def_27 .def_14))) (let ((.def_29 (not .def_28))) (let ((.def_30 (not A2))) (let ((.def_31 (= .def_30 A9))) (let ((.def_32 (and .def_21 A14))) (let ((.def_33 (and .def_32 .def_31))) (let ((.def_34 (not .def_33))) (let ((.def_35 (or A12 A18))) (let ((.def_36 (not .def_35))) (let ((.def_37 (not A10))) (let ((.def_38 (= .def_37 A14))) (let ((.def_39 (and .def_38 .def_36))) (let ((.def_40 (= .def_39 .def_34))) (let ((.def_41 (not .def_40))) (let ((.def_42 (= A3 A20))) (let ((.def_43 (not .def_42))) (let ((.def_44 (= A18 .def_23))) (let ((.def_45 (and .def_44 .def_43))) (let ((.def_46 (not A19))) (let ((.def_47 (or A21 .def_46))) (let ((.def_48 (not A24))) (let ((.def_49 (and .def_37 .def_48))) (let ((.def_50 (or .def_49 .def_47))) (let ((.def_51 (not .def_50))) (let ((.def_52 (= .def_51 .def_45))) (let ((.def_53 (or .def_52 .def_41))) (let ((.def_54 (and .def_53 .def_29))) (let ((.def_55 (not .def_54))) (let ((.def_56 (not .def_24))) (let ((.def_57 (and A9 A19))) (let ((.def_58 (not .def_57))) (let ((.def_59 (or .def_58 .def_56))) (let ((.def_60 (not .def_59))) (let ((.def_61 (and A10 A11))) (let ((.def_62 (not .def_61))) (let ((.def_63 (or A23 .def_15))) (let ((.def_64 (or .def_63 .def_62))) (let ((.def_65 (and .def_64 .def_60))) (let ((.def_66 (not A20))) (let ((.def_67 (not A14))) (let ((.def_68 (= .def_67 .def_66))) (let ((.def_69 (not A11))) (let ((.def_70 (or A21 .def_69))) (let ((.def_71 (not .def_70))) (let ((.def_72 (and .def_71 .def_68))) (let ((.def_73 (not .def_72))) (let ((.def_74 (not A8))) (let ((.def_75 (and A0 .def_74))) (let ((.def_76 (not .def_75))) (let ((.def_77 (not A0))) (let ((.def_78 (or .def_77 .def_67))) (let ((.def_79 (= .def_78 .def_76))) (let ((.def_80 (not .def_79))) (let ((.def_81 (and .def_80 .def_73))) (let ((.def_82 (or .def_81 .def_65))) (let ((.def_83 (not .def_82))) (let ((.def_84 (not A5))) (let ((.def_85 (or .def_84 A20))) (let ((.def_86 (not .def_85))) (let ((.def_87 (not A15))) (let ((.def_88 (and .def_87 .def_21))) (let ((.def_89 (and .def_88 .def_86))) (let ((.def_90 (not .def_89))) (let ((.def_91 (not A9))) (let ((.def_92 (and A24 .def_91))) (let ((.def_93 (not .def_92))) (let ((.def_94 (and A22 A3))) (let ((.def_95 (not .def_94))) (let ((.def_96 (and .def_95 .def_93))) (let ((.def_97 (or .def_96 .def_90))) (let ((.def_98 (or A12 .def_48))) (let ((.def_99 (not .def_98))) (let ((.def_100 (or A15 A22))) (let ((.def_101 (not .def_100))) (let ((.def_102 (and .def_101 .def_99))) (let ((.def_103 (not .def_102))) (let ((.def_104 (not A22))) (let ((.def_105 (and .def_104 A10))) (let ((.def_106 (not .def_105))) (let ((.def_107 (and A11 A11))) (let ((.def_108 (and .def_107 .def_106))) (let ((.def_109 (and .def_108 .def_103))) (let ((.def_110 (= .def_109 .def_97))) (let ((.def_111 (and .def_110 .def_83))) (let ((.def_112 (or .def_111 .def_55))) .def_112))))))))))))))))))))))))))))))))))))))))))))))))))))))))))))))))))))))))))))))))))))))))))))))))))))))))))))))))))
(check-sat)
